NAME : instances/diverse-tsp/instance-0.tsp
COMMENT : No Comment
TYPE : TSP
DIMENSION: 50
EDGE_WEIGHT_TYPE : EUC_2D
NODE_COORD_SECTION
1 683 263 
2 78 997 
3 402 527 
4 1400 667 
5 359 1118 
6 810 14 
7 1527 1454 
8 1244 1550 
9 406 989 
10 1371 587 
11 1769 612 
12 1676 770 
13 1422 1764 
14 1146 246 
15 570 1462 
16 982 687 
17 417 1220 
18 1094 1150 
19 9 1623 
20 1239 1507 
21 920 877 
22 796 1472 
23 1188 760 
24 1032 1009 
25 612 404 
26 1238 1354 
27 1476 1894 
28 1502 373 
29 636 637 
30 192 1267 
31 1928 192 
32 1034 1222 
33 364 812 
34 1176 931 
35 144 564 
36 1882 262 
37 599 633 
38 509 1820 
39 1018 1550 
40 487 718 
41 385 1488 
42 590 1005 
43 435 805 
44 7 670 
45 326 281 
46 8 1501 
47 995 829 
48 1491 1367 
49 767 1566 
50 1133 277 
EOF
